Traveling Salesman Problem/TSP_generados/Aleatorio1620391184_14.tsp
NAME: Aleatorio1620391184_14.tsp
COMMENT: Randomly generated scenario
TYPE: TSP
DIMENSION: 14
EDGE_WEIGHT_TYPE: ATT
NODE_COORD_SECTION
1 40.77 43.68
2 39.33 48.2
3 4.29 15.55
4 14.66 22.13
5 0.44 11.45
6 39.21 48.73
7 25.41 49.45
8 14.6 47.51
9 9.97 39.77
10 21.26 30.78
11 44.6 11.5
12 41.68 43.13
13 0.6 20.16
14 3.06 35.14
