Traveling Salesman Problem/TSP_generados/Aleatorio1620391184_14.opt.tour
NAME: Aleatorio1620391184_14.opt.tour
COMMENT: Optimal solution for Aleatorio1620391184_14 (163.2048955391303)
TYPE: TOUR
DIMENSION: 14
TOUR_SECTION
1 2 6 7 8 9 14 13 5 3 4 10 11 12
-1
EOF
